1,323,43233,41928,31911,16872,43165,49366,24120,41518,23656,41999,33645,47043,1974,17188,20927,2215,43909,27087,18309,
2,323,1974,6830,2233,3296,816,8861,3842,735,8465,1184,9415,1354,16824,316,13908,9415,12389,2121,33373,
3,316,316,316,816,9318,816,323,316,316,316,323,323,323,316,1035,223,316,1450,49270,12408,
4,223,316,316,316,316,2232,316,316,316,316,2043,5095,316,323,25939,323,34830,316,316,28210,
5,223,316,316,323,316,316,316,316,3371,316,316,323,316,316,316,316,316,316,57401,59846,
6,223,316,316,316,316,316,316,316,316,316,316,316,316,316,316,316,316,316,16328,1820,
7,223,316,316,316,316,316,316,316,316,316,316,316,316,316,316,316,316,316,33950,21156,
8,223,316,316,316,316,316,316,11925,316,316,316,316,316,316,316,316,316,316,4904,8994,
9,223,316,316,316,316,316,316,316,316,316,316,316,316,316,316,316,316,316,30474,24259,
10,223,316,316,6266,316,316,316,316,316,316,316,316,316,316,316,316,316,316,13660,19734,
11,223,316,316,316,316,316,316,316,316,316,316,180,316,891,316,316,316,316,3272,35377,
12,180,180,180,316,316,316,180,180,180,316,180,180,316,316,180,316,180,316,56946,14047,
13,180,180,180,316,180,180,316,316,180,180,316,180,180,180,180,180,180,316,429,58262,
14,180,180,180,180,180,180,180,180,180,180,180,180,180,180,180,180,180,180,20790,180,
15,180,180,180,180,180,180,180,180,180,180,180,180,180,180,180,180,180,180,52895,23454,
16,180,180,180,180,180,180,180,180,180,180,180,180,180,180,180,180,180,180,20086,31617,
17,180,180,25219,180,180,180,180,180,180,180,180,180,180,180,180,180,180,180,180,30587,
18,180,180,180,180,180,180,180,180,180,180,180,180,180,180,180,180,180,180,10842,6486,
19,180,180,180,180,180,180,180,180,180,180,180,180,180,180,180,180,180,180,180,46288,
20,180,180,180,180,180,180,180,180,180,180,180,180,180,180,180,180,180,180,180,180,
21,180,180,180,180,180,180,180,180,180,180,180,180,180,180,180,180,180,47839,180,24454,
22,180,180,180,180,180,180,180,180,180,180,180,180,180,180,180,180,180,180,23872,2127,
23,180,180,180,180,180,180,180,180,180,180,180,180,180,180,180,180,180,180,11036,36844,
24,180,180,180,180,180,180,180,180,180,180,180,180,180,180,180,180,14025,180,8446,54591,
25,180,180,180,180,180,180,180,180,180,180,180,180,180,180,180,180,180,180,15269,24834,
26,180,180,180,180,180,180,180,180,180,180,180,180,180,180,180,180,180,180,39805,180,
27,180,180,180,180,180,180,180,180,180,180,180,180,180,180,180,180,180,180,31133,180,
28,180,180,180,180,180,180,180,180,180,180,180,180,180,180,180,180,180,180,23705,180,
29,180,180,180,180,180,180,180,180,180,180,180,180,180,180,180,180,180,180,180,41982,
30,180,180,180,180,180,180,180,180,180,180,180,180,180,180,180,180,180,180,180,22279,
31,180,180,180,180,180,180,180,180,180,180,180,180,180,180,10631,180,180,180,180,32052,
32,180,180,180,48289,180,180,180,180,180,180,180,180,180,180,180,180,180,180,38252,40974,
33,180,180,13360,180,180,180,180,180,13360,180,180,180,180,180,13360,180,180,180,17012,8661,
34,180,180,180,180,180,180,180,180,180,180,180,180,180,180,180,180,180,180,18903,22308,
35,180,180,180,180,180,180,180,180,180,180,180,180,180,180,180,180,180,180,60068,33177,
36,180,180,180,180,180,180,180,180,180,180,180,180,180,180,180,180,180,180,25698,37391,
37,180,180,180,180,180,180,180,180,180,180,180,180,180,180,180,180,180,180,180,14479,
38,180,180,180,180,180,180,180,180,180,180,180,180,180,180,180,180,180,180,51216,42019,
39,180,180,180,180,180,180,180,180,180,180,180,180,180,180,180,180,180,180,180,28772,
40,180,180,180,180,180,180,180,180,180,180,180,180,180,180,180,180,180,180,55814,14533,
41,180,180,180,180,180,180,180,180,180,180,180,5544,180,180,180,180,180,180,180,51798,
42,180,180,180,180,180,180,180,180,180,180,180,180,180,180,180,180,180,180,180,41416,
43,180,180,10741,180,180,180,180,180,180,180,180,180,180,180,180,180,180,180,17328,45519,
44,180,180,180,180,180,180,180,180,180,180,180,180,180,180,180,180,180,180,180,24431,
45,180,180,180,180,180,180,180,180,180,180,180,180,180,180,180,180,180,180,26718,46877,
46,180,180,180,180,180,180,180,180,180,180,180,180,180,180,180,180,180,180,41280,180,
47,180,180,180,180,180,180,180,180,180,180,22199,180,180,180,180,180,180,180,180,180,
48,180,180,180,180,180,180,180,180,180,180,180,180,180,180,180,180,180,180,28989,180,
49,180,180,180,180,180,180,180,180,180,180,180,180,180,180,180,180,180,180,30069,35761,
50,180,180,180,180,180,180,180,180,180,180,180,180,27460,180,180,180,180,180,180,25798,
51,180,180,180,180,180,180,22166,180,180,180,180,180,180,180,180,180,180,180,180,180,
52,180,180,180,180,180,180,180,180,180,180,180,180,180,180,180,180,180,180,180,56291,
53,180,180,180,180,180,180,180,180,180,180,180,180,180,180,180,180,180,180,55034,41815,
54,180,180,180,180,180,180,180,46628,180,180,180,180,180,180,180,19026,180,180,180,39592,
55,180,180,180,180,180,180,180,180,180,180,180,180,180,180,180,180,180,180,15734,180,
56,180,180,180,180,180,180,180,180,180,180,180,180,180,180,180,180,180,180,34602,17435,
57,180,180,180,180,180,180,180,180,180,180,180,180,180,180,180,180,180,180,29695,180,
58,180,180,180,180,180,180,180,180,180,180,180,180,180,180,180,180,180,180,38553,50009,
59,180,180,180,180,180,180,180,180,180,180,180,180,180,180,180,180,180,180,27597,24707,
60,180,180,180,180,180,180,180,180,180,180,180,180,180,180,180,180,180,180,36516,180,
61,180,180,180,180,180,151,180,180,180,180,180,180,180,180,180,180,180,180,41857,51779,
62,151,180,180,180,180,180,180,180,180,151,180,151,180,180,180,180,180,180,3809,14868,
63,151,151,180,180,180,180,151,151,151,151,180,180,180,151,180,180,180,151,33011,10352,
64,151,151,180,151,151,151,53854,151,180,180,151,151,180,180,180,180,180,151,48685,41373,
65,151,151,151,151,151,151,151,180,151,151,151,151,151,151,151,151,180,180,36947,14513,
66,151,151,151,151,151,151,180,151,151,26151,151,6910,151,151,151,151,151,151,28115,19320,
67,151,151,151,151,151,151,151,151,151,151,151,151,180,151,151,151,151,151,151,16240,
68,151,151,151,151,151,151,151,151,151,151,151,151,151,151,151,151,151,151,16152,16335,
69,151,151,151,151,151,151,151,151,151,151,151,151,151,151,39552,151,151,151,151,151,
70,151,151,151,151,151,15809,151,151,151,151,151,151,151,151,151,151,151,151,3621,25670,
71,151,151,151,151,151,151,151,151,151,151,151,151,151,151,7567,151,151,151,41282,52840,
72,151,151,151,151,151,151,151,151,151,151,151,151,151,151,151,151,151,151,151,12215,
73,151,151,151,151,151,151,151,151,151,151,151,151,151,151,151,151,151,151,11811,48569,
74,151,151,151,151,151,151,151,151,151,151,151,151,151,151,151,151,151,151,7027,39165,
75,151,151,151,151,151,151,151,151,151,151,151,151,151,151,151,151,151,151,31212,43033,
76,151,151,151,151,151,151,13679,151,151,151,151,151,151,151,151,151,151,151,43915,45257,
77,151,151,151,151,151,151,151,151,151,1088,151,151,151,151,151,151,151,151,151,23789,
78,151,151,151,151,151,151,151,151,151,151,151,151,151,151,151,151,151,151,151,151,
79,151,151,151,151,151,151,151,151,151,151,151,151,151,151,151,151,151,151,51306,151,
80,151,151,151,151,151,151,151,151,151,151,151,151,151,151,151,151,151,151,47674,26775,
81,151,151,151,151,151,151,3471,151,151,151,151,151,151,151,151,151,151,3471,17311,15457,
82,151,151,151,151,1205,151,151,151,151,151,151,151,151,151,151,151,151,151,42153,151,
83,151,151,151,151,151,151,151,151,151,151,151,151,151,151,151,151,151,151,39958,5594,
84,151,151,151,151,151,151,151,151,151,151,151,151,151,151,151,151,151,151,16992,9568,
85,151,151,151,151,151,151,151,151,151,151,151,151,151,151,151,151,151,151,4707,8769,
86,151,151,151,151,151,151,151,151,151,151,151,151,151,151,151,151,151,151,45447,32367,
87,151,151,151,151,151,151,151,151,151,151,151,151,151,151,151,151,151,12051,7366,57127,
88,151,151,151,151,151,151,151,151,151,151,2814,151,151,151,151,151,151,151,44274,48474,
89,151,151,151,11995,151,151,151,151,151,151,151,151,151,151,151,151,151,151,151,27300,
90,151,151,151,151,151,151,151,151,151,151,151,151,151,151,151,151,151,151,151,47085,
91,151,151,151,151,151,151,151,151,151,151,151,151,151,151,151,151,151,151,37722,151,
92,151,151,151,151,151,151,151,151,151,151,151,151,151,151,151,151,151,151,29886,268,
93,151,151,16075,151,151,151,151,151,151,151,151,151,151,1294,151,151,151,151,151,48521,
94,151,151,151,151,151,151,151,151,151,151,151,151,151,151,151,151,151,151,21523,151,
95,151,151,151,151,151,151,151,151,151,151,151,151,151,151,151,151,151,151,59106,26088,
96,151,151,151,151,151,151,151,151,151,151,151,151,151,151,151,151,151,151,31132,21051,
97,151,151,151,151,151,151,151,151,151,151,151,151,151,151,151,151,151,151,151,151,
98,151,151,151,21476,151,151,151,151,151,151,151,151,151,151,151,151,151,151,151,15250,
99,151,151,151,151,151,151,151,28233,34215,151,151,151,151,151,151,151,151,151,6613,34727,
100,151,151,151,151,151,151,151,151,151,10874,151,151,151,151,151,151,151,151,34194,28753,
